p cnf 713 1495
1 2 0
3 2 0
4 2 0
-1 -3 -4 -2 0
2 -5 -6 0
5 -2 -6 0
6 -2 -5 0
5 2 6 0
-6 0
3 7 0
4 7 0
-3 -4 -7 0
7 -8 -9 0
8 -7 -9 0
9 -7 -8 0
8 7 9 0
-9 0
7 -10 -11 0
10 -7 -11 0
11 -7 -10 0
10 7 11 0
-11 0
12 13 0
14 13 0
15 13 0
-12 -14 -15 -13 0
13 -16 -17 0
16 -13 -17 0
17 -13 -16 0
16 13 17 0
-17 0
14 18 0
15 18 0
-14 -15 -18 0
18 -19 -20 0
19 -18 -20 0
20 -18 -19 0
19 18 20 0
-20 0
21 -15 0
15 -21 0
22 23 0
24 23 0
25 23 0
26 23 0
27 23 0
28 23 0
29 23 0
-30 0
23 -31 -32 0
31 -23 -32 0
32 -23 -31 0
31 23 32 0
-32 0
24 33 0
25 33 0
26 33 0
27 33 0
28 33 0
29 33 0
-34 0
33 -35 -36 0
35 -33 -36 0
36 -33 -35 0
35 33 36 0
-36 0
25 37 0
26 37 0
27 37 0
28 37 0
29 37 0
-38 0
37 -39 -40 0
39 -37 -40 0
40 -37 -39 0
39 37 40 0
-40 0
26 41 0
27 41 0
28 41 0
29 41 0
-42 0
41 -43 -44 0
43 -41 -44 0
44 -41 -43 0
43 41 44 0
-44 0
27 45 0
28 45 0
29 45 0
-27 -28 -29 -45 0
45 -46 -47 0
46 -45 -47 0
47 -45 -46 0
46 45 47 0
-47 0
45 -48 -49 0
48 -45 -49 0
49 -45 -48 0
48 45 49 0
-49 0
45 -50 -51 0
50 -45 -51 0
51 -45 -50 0
50 45 51 0
-51 0
52 53 0
54 53 0
55 53 0
-52 -54 -55 -53 0
53 -56 -57 0
56 -53 -57 0
57 -53 -56 0
56 53 57 0
-57 0
54 58 0
55 58 0
-54 -55 -58 0
58 -59 -60 0
59 -58 -60 0
60 -58 -59 0
59 58 60 0
-60 0
61 -55 0
55 -61 0
55 62 0
63 62 0
-55 -63 -62 0
62 -64 -65 0
64 -62 -65 0
65 -62 -64 0
64 62 65 0
-65 0
66 67 0
68 67 0
69 67 0
70 67 0
71 67 0
72 67 0
-73 0
67 -74 -75 0
74 -67 -75 0
75 -67 -74 0
74 67 75 0
-75 0
68 76 0
69 76 0
70 76 0
71 76 0
72 76 0
-77 0
76 -78 -79 0
78 -76 -79 0
79 -76 -78 0
78 76 79 0
-79 0
69 80 0
70 80 0
71 80 0
72 80 0
-81 0
80 -82 -83 0
82 -80 -83 0
83 -80 -82 0
82 80 83 0
-83 0
70 84 0
71 84 0
72 84 0
-70 -71 -72 -84 0
84 -85 -86 0
85 -84 -86 0
86 -84 -85 0
85 84 86 0
-86 0
84 -87 -88 0
87 -84 -88 0
88 -84 -87 0
87 84 88 0
-88 0
84 -89 -90 0
89 -84 -90 0
90 -84 -89 0
89 84 90 0
-90 0
27 91 0
28 91 0
29 91 0
92 91 0
93 91 0
-94 0
91 -95 -96 0
95 -91 -96 0
96 -91 -95 0
95 91 96 0
-96 0
27 97 0
28 97 0
29 97 0
93 97 0
-98 0
97 -99 -100 0
99 -97 -100 0
100 -97 -99 0
99 97 100 0
-100 0
27 101 0
28 101 0
29 101 0
93 101 0
102 101 0
103 101 0
104 101 0
-105 0
101 -106 -107 0
106 -101 -107 0
107 -101 -106 0
106 101 107 0
-107 0
27 108 0
28 108 0
29 108 0
93 108 0
103 108 0
104 108 0
-109 0
108 -110 -111 0
110 -108 -111 0
111 -108 -110 0
110 108 111 0
-111 0
27 112 0
28 112 0
29 112 0
93 112 0
104 112 0
-113 0
112 -114 -115 0
114 -112 -115 0
115 -112 -114 0
114 112 115 0
-115 0
116 117 0
118 117 0
119 117 0
120 117 0
121 117 0
122 117 0
-123 0
117 -124 -125 0
124 -117 -125 0
125 -117 -124 0
124 117 125 0
-125 0
118 126 0
119 126 0
120 126 0
121 126 0
122 126 0
-127 0
126 -128 -129 0
128 -126 -129 0
129 -126 -128 0
128 126 129 0
-129 0
119 130 0
120 130 0
121 130 0
122 130 0
-131 0
130 -132 -133 0
132 -130 -133 0
133 -130 -132 0
132 130 133 0
-133 0
130 -134 -135 0
134 -130 -135 0
135 -130 -134 0
134 130 135 0
-135 0
130 -136 -137 0
136 -130 -137 0
137 -130 -136 0
136 130 137 0
-137 0
130 -138 -139 0
138 -130 -139 0
139 -130 -138 0
138 130 139 0
-139 0
140 141 0
142 141 0
143 141 0
144 141 0
145 141 0
146 141 0
147 141 0
-148 0
141 -149 -150 0
149 -141 -150 0
150 -141 -149 0
149 141 150 0
-150 0
142 151 0
143 151 0
144 151 0
145 151 0
146 151 0
147 151 0
-152 0
151 -153 -154 0
153 -151 -154 0
154 -151 -153 0
153 151 154 0
-154 0
143 155 0
144 155 0
145 155 0
146 155 0
147 155 0
-156 0
155 -157 -158 0
157 -155 -158 0
158 -155 -157 0
157 155 158 0
-158 0
144 159 0
145 159 0
146 159 0
147 159 0
-160 0
159 -161 -162 0
161 -159 -162 0
162 -159 -161 0
161 159 162 0
-162 0
159 -163 -164 0
163 -159 -164 0
164 -159 -163 0
163 159 164 0
-164 0
159 -165 -166 0
165 -159 -166 0
166 -159 -165 0
165 159 166 0
-166 0
159 -167 -168 0
167 -159 -168 0
168 -159 -167 0
167 159 168 0
-168 0
169 170 0
171 170 0
172 170 0
173 170 0
174 170 0
-175 0
-176 170 -177 0
176 -170 -177 0
177 -170 -176 0
176 170 177 0
-177 0
171 178 0
172 178 0
173 178 0
174 178 0
-179 0
178 -180 -181 0
180 -178 -181 0
181 -178 -180 0
180 178 181 0
-181 0
172 182 0
173 182 0
174 182 0
-172 -173 -174 -182 0
182 -183 -184 0
183 -182 -184 0
184 -182 -183 0
183 182 184 0
-184 0
182 -185 -186 0
185 -182 -186 0
186 -182 -185 0
185 182 186 0
-186 0
182 -187 -188 0
187 -182 -188 0
188 -182 -187 0
187 182 188 0
-188 0
189 190 0
191 190 0
192 190 0
193 190 0
194 190 0
195 190 0
196 190 0
197 190 0
-198 0
-199 190 -200 0
199 -190 -200 0
200 -190 -199 0
199 190 200 0
-200 0
191 201 0
192 201 0
193 201 0
194 201 0
195 201 0
196 201 0
197 201 0
-202 0
201 -203 -204 0
203 -201 -204 0
204 -201 -203 0
203 201 204 0
-204 0
192 205 0
193 205 0
194 205 0
195 205 0
196 205 0
197 205 0
-206 0
205 -207 -208 0
207 -205 -208 0
208 -205 -207 0
207 205 208 0
-208 0
193 209 0
194 209 0
195 209 0
196 209 0
197 209 0
-210 0
209 -211 -212 0
211 -209 -212 0
212 -209 -211 0
211 209 212 0
-212 0
194 213 0
195 213 0
196 213 0
197 213 0
-214 0
213 -215 -216 0
215 -213 -216 0
216 -213 -215 0
215 213 216 0
-216 0
213 -217 -218 0
217 -213 -218 0
218 -213 -217 0
217 213 218 0
-218 0
213 -219 -220 0
219 -213 -220 0
220 -213 -219 0
219 213 220 0
-220 0
213 -221 -222 0
221 -213 -222 0
222 -213 -221 0
221 213 222 0
-222 0
223 224 0
225 224 0
226 224 0
227 224 0
228 224 0
229 224 0
230 224 0
-231 0
-232 224 -233 0
232 -224 -233 0
233 -224 -232 0
232 224 233 0
-233 0
225 234 0
226 234 0
227 234 0
228 234 0
229 234 0
230 234 0
-235 0
234 -236 -237 0
236 -234 -237 0
237 -234 -236 0
236 234 237 0
-237 0
226 238 0
227 238 0
228 238 0
229 238 0
230 238 0
-239 0
238 -240 -241 0
240 -238 -241 0
241 -238 -240 0
240 238 241 0
-241 0
227 242 0
228 242 0
229 242 0
230 242 0
-243 0
242 -244 -245 0
244 -242 -245 0
245 -242 -244 0
244 242 245 0
-245 0
242 -246 -247 0
246 -242 -247 0
247 -242 -246 0
246 242 247 0
-247 0
242 -248 -249 0
248 -242 -249 0
249 -242 -248 0
248 242 249 0
-249 0
242 -250 -251 0
250 -242 -251 0
251 -242 -250 0
250 242 251 0
-251 0
144 252 0
145 252 0
146 252 0
147 252 0
253 252 0
254 252 0
255 252 0
-256 0
-257 252 -258 0
257 -252 -258 0
258 -252 -257 0
257 252 258 0
-258 0
144 259 0
145 259 0
146 259 0
147 259 0
254 259 0
255 259 0
-260 0
259 -261 -262 0
261 -259 -262 0
262 -259 -261 0
261 259 262 0
-262 0
144 263 0
145 263 0
146 263 0
147 263 0
255 263 0
-264 0
263 -265 -266 0
265 -263 -266 0
266 -263 -265 0
265 263 266 0
-266 0
267 268 0
269 268 0
270 268 0
271 268 0
272 268 0
273 268 0
-274 0
-275 268 -276 0
275 -268 -276 0
276 -268 -275 0
275 268 276 0
-276 0
269 277 0
270 277 0
271 277 0
272 277 0
273 277 0
-278 0
277 -279 -280 0
279 -277 -280 0
280 -277 -279 0
279 277 280 0
-280 0
270 281 0
271 281 0
272 281 0
273 281 0
-282 0
281 -283 -284 0
283 -281 -284 0
284 -281 -283 0
283 281 284 0
-284 0
271 285 0
272 285 0
273 285 0
-271 -272 -273 -285 0
285 -286 -287 0
286 -285 -287 0
287 -285 -286 0
286 285 287 0
-287 0
272 288 0
273 288 0
-272 -273 -288 0
288 -289 -290 0
289 -288 -290 0
290 -288 -289 0
289 288 290 0
-290 0
288 -291 -292 0
291 -288 -292 0
292 -288 -291 0
291 288 292 0
-292 0
293 294 0
295 294 0
296 294 0
297 294 0
298 294 0
299 294 0
300 294 0
-301 0
-302 294 -303 0
302 -294 -303 0
303 -294 -302 0
302 294 303 0
-303 0
295 304 0
296 304 0
297 304 0
298 304 0
299 304 0
300 304 0
-305 0
304 -306 -307 0
306 -304 -307 0
307 -304 -306 0
306 304 307 0
-307 0
296 308 0
297 308 0
298 308 0
299 308 0
300 308 0
-309 0
308 -310 -311 0
310 -308 -311 0
311 -308 -310 0
310 308 311 0
-311 0
297 312 0
298 312 0
299 312 0
300 312 0
-313 0
312 -314 -315 0
314 -312 -315 0
315 -312 -314 0
314 312 315 0
-315 0
298 316 0
299 316 0
300 316 0
-298 -299 -300 -316 0
316 -317 -318 0
317 -316 -318 0
318 -316 -317 0
317 316 318 0
-318 0
316 -319 -320 0
319 -316 -320 0
320 -316 -319 0
319 316 320 0
-320 0
316 -321 -322 0
321 -316 -322 0
322 -316 -321 0
321 316 322 0
-322 0
323 324 0
325 324 0
326 324 0
327 324 0
328 324 0
329 324 0
-330 0
-331 324 -332 0
331 -324 -332 0
332 -324 -331 0
331 324 332 0
-332 0
325 333 0
326 333 0
327 333 0
328 333 0
329 333 0
-334 0
333 -335 -336 0
335 -333 -336 0
336 -333 -335 0
335 333 336 0
-336 0
326 337 0
327 337 0
328 337 0
329 337 0
-338 0
337 -339 -340 0
339 -337 -340 0
340 -337 -339 0
339 337 340 0
-340 0
337 -341 -342 0
341 -337 -342 0
342 -337 -341 0
341 337 342 0
-342 0
337 -343 -344 0
343 -337 -344 0
344 -337 -343 0
343 337 344 0
-344 0
337 -345 -346 0
345 -337 -346 0
346 -337 -345 0
345 337 346 0
-346 0
347 348 0
349 348 0
350 348 0
351 348 0
352 348 0
353 348 0
354 348 0
-355 0
-356 348 -357 0
356 -348 -357 0
357 -348 -356 0
356 348 357 0
-357 0
349 358 0
350 358 0
351 358 0
352 358 0
353 358 0
354 358 0
-359 0
358 -360 -361 0
360 -358 -361 0
361 -358 -360 0
360 358 361 0
-361 0
350 362 0
351 362 0
352 362 0
353 362 0
354 362 0
-363 0
362 -364 -365 0
364 -362 -365 0
365 -362 -364 0
364 362 365 0
-365 0
351 366 0
352 366 0
353 366 0
354 366 0
-367 0
366 -368 -369 0
368 -366 -369 0
369 -366 -368 0
368 366 369 0
-369 0
352 370 0
353 370 0
354 370 0
-352 -353 -354 -370 0
370 -371 -372 0
371 -370 -372 0
372 -370 -371 0
371 370 372 0
-372 0
370 -373 -374 0
373 -370 -374 0
374 -370 -373 0
373 370 374 0
-374 0
370 -375 -376 0
375 -370 -376 0
376 -370 -375 0
375 370 376 0
-376 0
377 378 0
379 378 0
380 378 0
381 378 0
382 378 0
383 378 0
-384 0
-385 378 -386 0
385 -378 -386 0
386 -378 -385 0
385 378 386 0
-386 0
379 387 0
380 387 0
381 387 0
382 387 0
383 387 0
-388 0
387 -389 -390 0
389 -387 -390 0
390 -387 -389 0
389 387 390 0
-390 0
380 391 0
381 391 0
382 391 0
383 391 0
-392 0
391 -393 -394 0
393 -391 -394 0
394 -391 -393 0
393 391 394 0
-394 0
381 395 0
382 395 0
383 395 0
-381 -382 -383 -395 0
395 -396 -397 0
396 -395 -397 0
397 -395 -396 0
396 395 397 0
-397 0
395 -398 -399 0
398 -395 -399 0
399 -395 -398 0
398 395 399 0
-399 0
395 -400 -401 0
400 -395 -401 0
401 -395 -400 0
400 395 401 0
-401 0
298 402 0
299 402 0
300 402 0
403 402 0
404 402 0
405 402 0
-406 0
-407 402 -408 0
407 -402 -408 0
408 -402 -407 0
407 402 408 0
-408 0
298 409 0
299 409 0
300 409 0
404 409 0
405 409 0
-410 0
409 -411 -412 0
411 -409 -412 0
412 -409 -411 0
411 409 412 0
-412 0
298 413 0
299 413 0
300 413 0
405 413 0
-414 0
413 -415 -416 0
415 -413 -416 0
416 -413 -415 0
415 413 416 0
-416 0
417 -418 0
419 417 0
418 -419 -417 0
1 -417 0
-1 417 0
420 -421 0
422 420 0
421 -422 -420 0
3 -420 0
-3 420 0
423 -424 0
425 423 0
424 -425 -423 0
4 -423 0
-4 423 0
426 -427 0
428 426 0
427 -428 -426 0
12 -426 0
-12 426 0
429 -430 0
431 429 0
430 -431 -429 0
14 -429 0
-14 429 0
432 -433 0
434 432 0
433 -434 -432 0
15 -432 0
-15 432 0
435 -436 0
437 435 0
436 -437 -435 0
22 -435 0
-22 435 0
438 -439 0
440 438 0
439 -440 -438 0
24 -438 0
-24 438 0
441 -442 0
443 441 0
442 -443 -441 0
25 -441 0
-25 441 0
444 -445 0
446 444 0
445 -446 -444 0
26 -444 0
-26 444 0
447 -448 0
449 447 0
448 -449 -447 0
27 -447 0
-27 447 0
450 -451 0
452 450 0
451 -452 -450 0
28 -450 0
-28 450 0
453 -454 0
455 453 0
454 -455 -453 0
29 -453 0
-29 453 0
456 -457 0
458 456 0
457 -458 -456 0
52 -456 0
-52 456 0
459 -460 0
461 459 0
460 -461 -459 0
54 -459 0
-54 459 0
462 -463 0
464 462 0
463 -464 -462 0
55 -462 0
-55 462 0
465 -466 0
467 465 0
466 -467 -465 0
63 -465 0
-63 465 0
468 -469 0
470 468 0
469 -470 -468 0
66 -468 0
-66 468 0
471 -472 0
473 471 0
472 -473 -471 0
68 -471 0
-68 471 0
474 -475 0
476 474 0
475 -476 -474 0
69 -474 0
-69 474 0
477 -478 0
479 477 0
478 -479 -477 0
70 -477 0
-70 477 0
480 -481 0
482 480 0
481 -482 -480 0
71 -480 0
-71 480 0
483 -484 0
485 483 0
484 -485 -483 0
72 -483 0
-72 483 0
486 -487 0
488 486 0
487 -488 -486 0
92 -486 0
-92 486 0
489 -490 0
491 489 0
490 -491 -489 0
93 -489 0
-93 489 0
492 -493 0
494 492 0
493 -494 -492 0
102 -492 0
-102 492 0
495 -496 0
497 495 0
496 -497 -495 0
103 -495 0
-103 495 0
498 -499 0
500 498 0
499 -500 -498 0
104 -498 0
-104 498 0
501 -502 0
503 501 0
502 -503 -501 0
116 -501 0
-116 501 0
504 -505 0
506 504 0
505 -506 -504 0
118 -504 0
-118 504 0
507 -508 0
509 507 0
508 -509 -507 0
119 -507 0
-119 507 0
510 -511 0
512 510 0
511 -512 -510 0
120 -510 0
-120 510 0
513 -514 0
515 513 0
514 -515 -513 0
121 -513 0
-121 513 0
516 -517 0
518 516 0
517 -518 -516 0
122 -516 0
-122 516 0
519 -520 0
521 519 0
520 -521 -519 0
140 -519 0
-140 519 0
522 -523 0
524 522 0
523 -524 -522 0
142 -522 0
-142 522 0
525 -526 0
527 525 0
526 -527 -525 0
143 -525 0
-143 525 0
528 -529 0
530 528 0
529 -530 -528 0
144 -528 0
-144 528 0
531 -532 0
533 531 0
532 -533 -531 0
145 -531 0
-145 531 0
534 -535 0
536 534 0
535 -536 -534 0
146 -534 0
-146 534 0
537 -538 0
539 537 0
538 -539 -537 0
147 -537 0
-147 537 0
540 -541 0
542 540 0
541 -542 -540 0
169 -540 0
-169 540 0
543 -544 0
545 543 0
544 -545 -543 0
171 -543 0
-171 543 0
546 -547 0
548 546 0
547 -548 -546 0
172 -546 0
-172 546 0
549 -550 0
551 549 0
550 -551 -549 0
173 -549 0
-173 549 0
552 -553 0
554 552 0
553 -554 -552 0
174 -552 0
-174 552 0
555 -556 0
557 555 0
556 -557 -555 0
189 -555 0
-189 555 0
558 -559 0
560 558 0
559 -560 -558 0
191 -558 0
-191 558 0
561 -562 0
563 561 0
562 -563 -561 0
192 -561 0
-192 561 0
564 -565 0
566 564 0
565 -566 -564 0
193 -564 0
-193 564 0
567 -568 0
569 567 0
568 -569 -567 0
194 -567 0
-194 567 0
570 -571 0
572 570 0
571 -572 -570 0
195 -570 0
-195 570 0
573 -574 0
575 573 0
574 -575 -573 0
196 -573 0
-196 573 0
576 -577 0
578 576 0
577 -578 -576 0
197 -576 0
-197 576 0
579 -580 0
581 579 0
580 -581 -579 0
223 -579 0
-223 579 0
582 -583 0
584 582 0
583 -584 -582 0
225 -582 0
-225 582 0
585 -586 0
587 585 0
586 -587 -585 0
226 -585 0
-226 585 0
588 -589 0
590 588 0
589 -590 -588 0
227 -588 0
-227 588 0
591 -592 0
593 591 0
592 -593 -591 0
228 -591 0
-228 591 0
594 -595 0
596 594 0
595 -596 -594 0
229 -594 0
-229 594 0
597 -598 0
599 597 0
598 -599 -597 0
230 -597 0
-230 597 0
600 -601 0
602 600 0
601 -602 -600 0
253 -600 0
-253 600 0
603 -604 0
605 603 0
604 -605 -603 0
254 -603 0
-254 603 0
606 -607 0
608 606 0
607 -608 -606 0
255 -606 0
-255 606 0
609 -610 0
611 609 0
610 -611 -609 0
267 -609 0
-267 609 0
612 -613 0
614 612 0
613 -614 -612 0
269 -612 0
-269 612 0
615 -616 0
617 615 0
616 -617 -615 0
270 -615 0
-270 615 0
618 -619 0
620 618 0
619 -620 -618 0
271 -618 0
-271 618 0
621 -622 0
623 621 0
622 -623 -621 0
272 -621 0
-272 621 0
624 -625 0
626 624 0
625 -626 -624 0
273 -624 0
-273 624 0
627 -628 0
629 627 0
628 -629 -627 0
293 -627 0
-293 627 0
630 -631 0
632 630 0
631 -632 -630 0
295 -630 0
-295 630 0
633 -634 0
635 633 0
634 -635 -633 0
296 -633 0
-296 633 0
636 -637 0
638 636 0
637 -638 -636 0
297 -636 0
-297 636 0
639 -640 0
641 639 0
640 -641 -639 0
298 -639 0
-298 639 0
642 -643 0
644 642 0
643 -644 -642 0
299 -642 0
-299 642 0
645 -646 0
647 645 0
646 -647 -645 0
300 -645 0
-300 645 0
648 -649 0
650 648 0
649 -650 -648 0
323 -648 0
-323 648 0
651 -652 0
653 651 0
652 -653 -651 0
325 -651 0
-325 651 0
654 -655 0
656 654 0
655 -656 -654 0
326 -654 0
-326 654 0
657 -658 0
659 657 0
658 -659 -657 0
327 -657 0
-327 657 0
660 -661 0
662 660 0
661 -662 -660 0
328 -660 0
-328 660 0
663 -664 0
665 663 0
664 -665 -663 0
329 -663 0
-329 663 0
666 -667 0
668 666 0
667 -668 -666 0
347 -666 0
-347 666 0
669 -670 0
671 669 0
670 -671 -669 0
349 -669 0
-349 669 0
672 -673 0
674 672 0
673 -674 -672 0
350 -672 0
-350 672 0
675 -676 0
677 675 0
676 -677 -675 0
351 -675 0
-351 675 0
678 -679 0
680 678 0
679 -680 -678 0
352 -678 0
-352 678 0
681 -682 0
683 681 0
682 -683 -681 0
353 -681 0
-353 681 0
684 -685 0
686 684 0
685 -686 -684 0
354 -684 0
-354 684 0
687 -688 0
689 687 0
688 -689 -687 0
377 -687 0
-377 687 0
690 -691 0
692 690 0
691 -692 -690 0
379 -690 0
-379 690 0
693 -694 0
695 693 0
694 -695 -693 0
380 -693 0
-380 693 0
696 -697 0
698 696 0
697 -698 -696 0
381 -696 0
-381 696 0
699 -700 0
701 699 0
700 -701 -699 0
382 -699 0
-382 699 0
702 -703 0
704 702 0
703 -704 -702 0
383 -702 0
-383 702 0
705 -706 0
707 705 0
706 -707 -705 0
403 -705 0
-403 705 0
708 -709 0
710 708 0
709 -710 -708 0
404 -708 0
-404 708 0
711 -712 0
713 711 0
712 -713 -711 0
405 -711 0
-405 711 0
419 0
422 0
-425 0
-428 0
431 0
-434 0
437 0
-440 0
443 0
-446 0
-449 0
-452 0
455 0
-458 0
-461 0
464 0
-467 0
-470 0
473 0
476 0
479 0
482 0
-485 0
-488 0
491 0
-494 0
-497 0
-500 0
503 0
506 0
-509 0
512 0
515 0
-518 0
-521 0
-524 0
-527 0
530 0
-533 0
536 0
539 0
542 0
-545 0
-548 0
-551 0
-554 0
-557 0
560 0
-563 0
566 0
-569 0
-572 0
575 0
578 0
581 0
584 0
-587 0
590 0
593 0
-596 0
599 0
-602 0
-605 0
608 0
611 0
-614 0
617 0
-620 0
-623 0
-626 0
-629 0
-632 0
635 0
-638 0
641 0
644 0
-647 0
650 0
-653 0
656 0
659 0
-662 0
665 0
-668 0
-671 0
-674 0
677 0
680 0
-683 0
686 0
-689 0
692 0
-695 0
698 0
-701 0
-704 0
-707 0
-710 0
-713 0
5 0
16 0
31 0
56 0
64 0
74 0
95 0
106 0
124 0
149 0
-176 0
-199 0
-232 0
-257 0
-275 0
-302 0
-331 0
-356 0
-385 0
-407 0
